solution/p_2_4.txt_600.row.sol
<?xml version = "1.0" encoding="UTF-8" standalone="yes"?>
<CPLEXSolution version="1.2">
 <header
   problemName="ilog.cplex"
   solutionName="incumbent"
   solutionIndex="-1"
   objectiveValue="99"
   solutionTypeValue="3"
   solutionTypeString="primal"
   solutionStatusValue="101"
   solutionStatusString="integer optimal solution"
   solutionMethodString="mip"
   primalFeasible="1"
   dualFeasible="1"
   MIPNodes="0"
   MIPIterations="1"
   writeLevel="1"/>
 <quality
   epInt="1.0000000000000001e-05"
   epRHS="9.9999999999999995e-07"
   maxIntInfeas="1.1102230246251565e-15"
   maxPrimalInfeas="0"
   maxX="1"
   maxSlack="25.999999999999964"/>
 <linearConstraints>
  <constraint index="0" slack="25.999999999999964"/>
  <constraint index="1" slack="0"/>
  <constraint index="2" slack="0"/>
  <constraint index="3" slack="1"/>
  <constraint index="4" slack="0"/>
  <constraint index="5" slack="0"/>
  <constraint index="6" slack="0"/>
  <constraint index="7" slack="0"/>
  <constraint index="8" slack="0"/>
  <constraint index="9" slack="1"/>
 </linearConstraints>
 <variables>
  <variable name="x_ijk_0_0_0" index="0" value="0"/>
  <variable name="x_ijk_0_1_0" index="1" value="0"/>
  <variable name="x_ijk_0_2_0" index="2" value="1"/>
  <variable name="x_ijk_0_3_0" index="3" value="0"/>
  <variable name="x_ijk_1_0_0" index="4" value="-0"/>
  <variable name="x_ijk_1_1_0" index="5" value="1"/>
  <variable name="x_ijk_1_2_0" index="6" value="-0"/>
  <variable name="x_ijk_1_3_0" index="7" value="0"/>
  <variable name="x_ijk_2_0_0" index="8" value="0"/>
  <variable name="x_ijk_2_1_0" index="9" value="0"/>
  <variable name="x_ijk_2_2_0" index="10" value="0"/>
  <variable name="x_ijk_2_3_0" index="11" value="0"/>
  <variable name="x_ijk_2_4_0" index="12" value="1"/>
  <variable name="x_ijk_3_0_0" index="13" value="0.99999999999999889"/>
  <variable name="x_ijk_3_1_0" index="14" value="1.1102230246251565e-15"/>
  <variable name="x_ijk_3_2_0" index="15" value="0"/>
  <variable name="x_ijk_3_3_0" index="16" value="-0"/>
  <variable name="x_ijk_0_0_1" index="17" value="0"/>
  <variable name="x_ijk_0_1_1" index="18" value="0"/>
  <variable name="x_ijk_0_2_1" index="19" value="0"/>
  <variable name="x_ijk_0_3_1" index="20" value="0"/>
  <variable name="x_ijk_1_0_1" index="21" value="0"/>
  <variable name="x_ijk_1_1_1" index="22" value="1"/>
  <variable name="x_ijk_1_2_1" index="23" value="0"/>
  <variable name="x_ijk_1_3_1" index="24" value="0"/>
  <variable name="x_ijk_2_0_1" index="25" value="0"/>
  <variable name="x_ijk_2_1_1" index="26" value="0"/>
  <variable name="x_ijk_2_2_1" index="27" value="1"/>
  <variable name="x_ijk_2_3_1" index="28" value="0"/>
  <variable name="x_ijk_2_4_1" index="29" value="0"/>
  <variable name="x_ijk_3_0_1" index="30" value="0"/>
  <variable name="x_ijk_3_1_1" index="31" value="0"/>
  <variable name="x_ijk_3_2_1" index="32" value="0"/>
  <variable name="x_ijk_3_3_1" index="33" value="0"/>
 </variables>
</CPLEXSolution>
